$rem
exchange              b3lyp
correlation	      none
basis                 6-31g* 
jobtype               sp 
symmetry              off
sym_ignore            true
print_input           false
esp_charges           true 
MAX_SCF_CYCLES        250
$end

$molecule
0 1
C       0.0000000       1.4017220       0.0000000
C       1.2139270       0.7008610       0.0000000
C       1.2139270       -0.7008610      0.0000000
C       0.0000000       -1.4017220      0.0000000
C       -1.2139270      -0.7008610      0.0000000
C       -1.2139270      0.7008610       0.0000000
H       0.0000000       2.4926760       0.0000000
H       2.1587200       1.2463380       0.0000000
H       2.1587200       -1.2463380      0.0000000
H       0.0000000       -2.4926760      0.0000000
H       -2.1587200      -1.2463380      0.0000000
H       -2.1587200      1.2463380       0.0000000
$end

