! hf 6-31G* ecp{LANL=Co, LANLDZ=Co} chelpg  # copt instead of opt would be cartesian-opt (a bit faster i think)

%pal
nprocs 32   # 64
end

%scf
maxiter 2000
end


*xyz -2 1
 C    -2.532438    36.890166    16.006556
 C    -2.039558    35.867816    16.750351
 C    -2.917912    35.148969    17.493971
 C    -4.224040    35.477628    17.477229
 N    -4.747689    36.477050    16.757216
 C    -3.854596    37.168526    16.038146
 C    -0.633539    35.546613    16.822266
 N     0.215464    36.091075    16.031654
 N     1.703801    36.067928    16.276681
 C     2.037162    35.241254    15.881213
 C     3.611015    35.079518    15.982138
 C     4.046206    33.843120    16.039058
 C     5.371435    33.496899    16.097878
 N     6.331364    34.342737    16.111576
 C     5.974846    35.568160    16.112422
 C     4.600671    35.917559    16.125185
Co     8.469118    33.828345    16.092788
 O     8.534992    34.091452    18.243687
 C     8.802773    35.307504    18.086948
 C     8.950252    36.184736    19.289620
 C     9.083054    37.531938    19.132443
 C     9.221143    38.407150    20.240345
 C     9.184675    37.836224    21.556138
 C     9.042880    36.444018    21.679537
 C     8.931080    35.649861    20.578331
 C     9.277601    38.702784    22.658681
 C     9.430920    40.040304    22.503548
 C     9.495627    40.580787    21.206509
 C     9.379131    39.798834    20.087830
 C     9.571055    40.928357    23.707501
 O     9.418806    40.453783    24.856895
 H    -5.667524    36.611555    16.806825
 N    10.584197    33.376279    16.078866
 C    11.477290    34.067755    15.359797
 C    12.799447    33.789394    15.328207
 C    13.292326    32.767044    16.072002
 C    12.413972    32.048197    16.815621
 C    11.107844    32.376857    16.798878
 C    14.698345    32.445839    16.143917
 N    15.547349    32.990301    15.353306
 N    17.035686    32.967154    15.598333
 C    17.369046    32.140480    15.202865
 C    18.942899    31.978743    15.303790
 C    19.932555    32.816784    15.446837
 C    21.306730    32.467385    15.434074
 N    21.663249    31.241962    15.433227
 C    20.703320    30.396124    15.419529
 C    19.378090    30.742345    15.360709
 H    22.533019    30.913686    15.465826
 O     8.945613    35.790116    16.941094
 O     8.488560    34.555961    14.239802
 C     8.864695    34.869777    13.103410
 O     8.935726    34.067027    12.126309
Co     8.717574    32.056079    12.351203
 O     8.810437    31.298289    14.217080
 C     8.273117    31.003070    15.311651
 O     7.986434    31.848766    16.205251
 O     9.894959    42.128039    23.556990
 C     9.250257    36.312963    12.835692
 C     9.264843    37.224953    13.875241
 C     9.619475    38.576216    13.654107
 C     9.956286    38.987032    12.341693
 C     9.965988    38.031821    11.289989
 C     9.619453    36.739763    11.531973
 C    10.262028    40.352414    12.107346
 C    10.251085    41.260838    13.128375
 C     9.950906    40.846329    14.418014
 C     9.646100    39.527463    14.677849
 C    10.531396    42.711950    12.830785
 O    10.244715    43.557646    13.724385
 O    11.068717    43.007169    11.736214
 N    10.854139    31.828293    12.307372
 C    11.676330    32.814363    11.963755
 C    13.022564    32.654939    11.860431
 C    13.632533    31.450777    12.142476
 C    12.767362    30.465268    12.523951
 C    11.431206    30.703865    12.601639
 C    15.073388    31.316485    12.003094
 N    15.663357    30.222077    12.198787
 N    17.046046    30.348304    12.011126
 C    17.686960    29.292742    12.204843
 C    19.122251    29.258567    12.060268
 C    19.871702    30.319363    11.610298
 C    21.219151    30.206829    11.500804
 N    21.881058    29.094978    11.812112
 C    21.167191    28.059965    12.225568
 C    19.830819    28.090264    12.347141
 H    22.805679    29.087947    11.716775
 N     6.549172    32.195747    12.490464
 C     5.835304    31.160734    12.903920
 C     4.498932    31.191035    13.025492
 C     3.790365    32.359337    12.738619
 C     4.539816    33.420133    12.288650
 C     5.887265    33.307599    12.179156
 C     2.355073    32.393511    12.883194
 N     1.714160    33.449075    12.689476
 N     0.331470    33.322849    12.877137
 C    -0.258498    34.417256    12.681444
 C    -1.699352    34.551547    12.820826
 C    -2.309322    35.755710    12.538781
 C    -3.655556    35.915136    12.642103
 N    -4.477746    34.929066    12.985722
 C    -3.900681    33.804638    13.279990
 C    -2.564524    33.566039    13.202301
 H    -5.390281    35.113565    12.990118
 C     7.992806    29.551958    15.609241
 C     8.003748    28.643534    14.588213
 C     7.698008    27.278151    14.822561
 C     7.361195    26.867337    16.134975
 C     7.387821    27.818583    17.158717
 C     7.692626    29.137449    16.898880
 C     7.006564    25.516073    16.356109
 C     6.991978    24.604084    15.316560
 C     7.361174    25.030883    14.012841
 C     7.707710    26.322940    13.770857
 C     6.606416    23.160898    15.584278
 O     6.230281    22.847083    16.720670
 O     6.677448    22.358148    14.607177
 H    -4.804223    34.975909    18.004792
 H    -2.620320    34.435959    18.010972
 H    -4.162997    37.881896    15.528177
 H    -1.961858    37.399912    15.478237
 H    -0.339039    34.935157    17.455836
 H     1.483861    34.608829    15.481820
 H     3.417097    33.158666    16.043126
 H     4.385984    36.814598    16.243099
 H     5.584620    32.591904    16.127117
 H     6.621558    36.237187    16.106800
 H    11.168889    34.781126    14.849828
 H    10.527662    31.875138    17.326442
 H    13.370027    34.299140    14.799888
 H    12.711564    31.335186    17.332621
 H     9.084545    37.885935    18.270625
 H     8.839304    34.729872    20.685602
 H     9.036782    36.945580    14.731857
 H     9.622511    36.125377    10.831697
 H     8.214396    28.924787    13.727118
 H     7.698065    29.755293    17.594679
 H     9.026125    36.057836    22.524170
 H    10.209439    38.292571    10.432641
 H    14.992845    31.834383    16.777487
 H     7.196087    27.557530    18.029743
 H     9.402791    40.180274    19.240457
 H     6.282275    30.374128    13.122549
 H     6.369967    34.038804    11.868675
 H    11.314766    33.651194    11.783847
 H    10.887273    30.006333    12.892086
 H     9.454367    39.266408    15.548876
 H     7.951160    26.583690    12.913508
 H     9.231311    38.349490    23.516376
 H     9.622039    41.496501    21.106465
 H     4.041811    30.428210    13.299774
 H     4.122140    34.219672    12.058847
 H    13.543637    33.376236    11.595111
 H    13.095065    29.620674    12.732968
 H    10.472674    40.633667    11.246250
 H     9.956344    41.464171    15.113813
 H    16.815745    31.508055    14.803473
 H     6.778503    25.236700    17.212724
 H     7.364233    24.416496    13.312565
 H     1.900551    31.618919    13.125515
 H    15.573356    32.062419    11.762571
 H    18.748981    30.057891    15.364776
 H    19.717869    33.713823    15.564752
 H    20.916505    29.491128    15.448767
 H    21.953442    33.136412    15.428453
 H    17.232438    28.518150    12.447164
 H     0.241470    35.163189    12.440922
 H    -1.788247    36.477006    12.273460
 H    -2.236821    32.721444    13.411319
 H    19.454026    31.118902    11.380496
 H    19.373697    27.327439    12.621423
 H    -4.017119    36.751967    12.462196
 H    -4.444614    33.107106    13.570436
 H    21.701853    30.938035    11.190323
 H    21.614162    27.273358    12.444198
*

