&GLOBAL
  PROJECT SIFSIX18Nibeta
  PRINT_LEVEL  MEDIUM
  RUN_TYPE ENERGY
  FLUSH_SHOULD_FLUSH T
&END GLOBAL

&FORCE_EVAL
  METHOD QS
  &DFT
    BASIS_SET_FILE_NAME  BASIS_MOLOPT
    POTENTIAL_FILE_NAME  GTH_POTENTIALS

    CHARGE 0

    &MGRID
      NGRIDS 5
      CUTOFF 500
    &END MGRID

    &QS
      METHOD GPW
      EXTRAPOLATION  PS
      EXTRAPOLATION_ORDER  4
      MAP_CONSISTENT
    &END QS

    &SCF
      SCF_GUESS  ATOMIC
      EPS_SCF 5.0E-7
      MAX_SCF 800 
      CHOLESKY INVERSE

      &OT
        PRECONDITIONER FULL_KINETIC          
        MINIMIZER CG
      &END

      &OUTER_SCF
        EPS_SCF 5.0E-7
        MAX_SCF 50
      &END

      &PRINT
        &RESTART
          &EACH
              QS_SCF 20
          &END
          ADD_LAST NUMERIC
        &END
      &END
    &END SCF
    &XC
      &XC_FUNCTIONAL
        &PBE
           PARAMETRIZATION revPBE
        &END
      &END XC_FUNCTIONAL
      &XC_GRID
        XC_SMOOTH_RHO NN50
        XC_DERIV NN50_SMOOTH
      &END
      &VDW_POTENTIAL
       POTENTIAL_TYPE PAIR_POTENTIAL
       &PAIR_POTENTIAL
          TYPE DFTD3
          CALCULATE_C9_TERM .TRUE.
          PARAMETER_FILE_NAME dftd3.dat
          VERBOSE_OUTPUT .TRUE.
          REFERENCE_FUNCTIONAL revPBE
          R_CUTOFF [angstrom] 6.09
       &END
      &END
    &END XC
    &PRINT
      &MOMENTS
        PERIODIC
      &END
      &V_HARTREE_CUBE
      &END
    &END PRINT
  &END DFT
  &SUBSYS
    &CELL
        A 14.19704  0.00000    0.00000
        B -0.00000  13.83841   0.00000
        C -0.60095  -0.00000   7.46876
        PERIODIC XYZ
    &END CELL

    &TOPOLOGY
      COORD_FILE_NAME SIFSIX18Nibeta.xyz
      COORDINATE XYZ
      CONNECTIVITY OFF
      &CENTER_COORDINATES
      &END
    &END TOPOLOGY

    &KIND Ni
      BASIS_SET  DZVP-MOLOPT-SR-GTH
      POTENTIAL  GTH-PBE-q18
    &END KIND
    &KIND Si
      BASIS_SET  DZVP-MOLOPT-SR-GTH
      POTENTIAL  GTH-PBE-q4
    &END KIND
    &KIND F
      BASIS_SET  DZVP-MOLOPT-GTH
      POTENTIAL  GTH-PBE-q7
    &END KIND
    &KIND C
      BASIS_SET  DZVP-MOLOPT-GTH
      POTENTIAL  GTH-PBE-q4
    &END KIND
    &KIND N
      BASIS_SET  DZVP-MOLOPT-GTH
      POTENTIAL  GTH-PBE-q5
    &END KIND
    &KIND H
      BASIS_SET  DZVP-MOLOPT-GTH
      POTENTIAL  GTH-PBE-q1
    &END KIND
    &KIND O
      BASIS_SET  DZVP-MOLOPT-GTH
      POTENTIAL  GTH-PBE-q6
    &END KIND

  &END SUBSYS

  &PROPERTIES
   &RESP
    USE_REPEAT_METHOD 
    &SPHERE_SAMPLING
     AUTO_VDW_RADII_TABLE UFF 
     AUTO_RMIN_SCALE 1.0
     AUTO_RMAX_SCALE 100
    &END
    #C1
    &CONSTRAINT
     EQUAL_CHARGES
     ATOM_LIST 1..4
    &END
    #F1
    &CONSTRAINT
     EQUAL_CHARGES
     ATOM_LIST 5..8
    &END
    #H2
    &CONSTRAINT
     EQUAL_CHARGES
     ATOM_LIST 9..12
    &END
    #Ni2
    &CONSTRAINT
     EQUAL_CHARGES
     ATOM_LIST 13..14
    &END
    #H3
    &CONSTRAINT
     EQUAL_CHARGES
     ATOM_LIST 15..18
    &END
    #Si3
    &CONSTRAINT
     EQUAL_CHARGES
     ATOM_LIST 19..20
    &END
    #F4
    &CONSTRAINT
     EQUAL_CHARGES
     ATOM_LIST 21..24
    &END
    #H4
    &CONSTRAINT
     EQUAL_CHARGES
     ATOM_LIST 25..28
    &END
    #C5
    &CONSTRAINT
     EQUAL_CHARGES
     ATOM_LIST 29..32
    &END
    #C6
    &CONSTRAINT
     EQUAL_CHARGES
     ATOM_LIST 33..36
    &END
    #F6
    &CONSTRAINT
     EQUAL_CHARGES
     ATOM_LIST 37..40
    &END
    #C7
    &CONSTRAINT
     EQUAL_CHARGES
     ATOM_LIST 41..44
    &END
    #C8
    &CONSTRAINT
     EQUAL_CHARGES
     ATOM_LIST 45..48
    &END
    #C9
    &CONSTRAINT
     EQUAL_CHARGES
     ATOM_LIST 49..52
    &END
    #H10
    &CONSTRAINT
     EQUAL_CHARGES
     ATOM_LIST 53..56
    &END
    #H11
    &CONSTRAINT
     EQUAL_CHARGES
     ATOM_LIST 57..60
    &END
    #H12
    &CONSTRAINT
     EQUAL_CHARGES
     ATOM_LIST 61..64
    &END
    #N13
    &CONSTRAINT
     EQUAL_CHARGES
     ATOM_LIST 65..68
    &END
    #H14
    &CONSTRAINT
     EQUAL_CHARGES
     ATOM_LIST 69..72
    &END
    #N15
    &CONSTRAINT
     EQUAL_CHARGES
     ATOM_LIST 73..76
    &END
    #C16
    &CONSTRAINT
     EQUAL_CHARGES
     ATOM_LIST 77..80
    &END
    #H17
    &CONSTRAINT
     EQUAL_CHARGES
     ATOM_LIST 81..84
    &END
    #H18
    &CONSTRAINT
     EQUAL_CHARGES
     ATOM_LIST 85..88
    &END
    #H19
    &CONSTRAINT
     EQUAL_CHARGES
     ATOM_LIST 89..92
    &END
    #C20
    &CONSTRAINT
     EQUAL_CHARGES
     ATOM_LIST 92..96
    &END
    #C21
    &CONSTRAINT
     EQUAL_CHARGES
     ATOM_LIST 97..100
    &END
    #C22
    &CONSTRAINT
     EQUAL_CHARGES
     ATOM_LIST 101..104
    &END
    #H23
    &CONSTRAINT
     EQUAL_CHARGES
     ATOM_LIST 105..108
    &END
    #H24
    &CONSTRAINT
     EQUAL_CHARGES
     ATOM_LIST 109..112
    &END
    #H25
    &CONSTRAINT
     EQUAL_CHARGES
     ATOM_LIST 113..116
    &END
    #N26
    &CONSTRAINT
     EQUAL_CHARGES
     ATOM_LIST 117..120
    &END
    #N27
    &CONSTRAINT
     EQUAL_CHARGES
     ATOM_LIST 121..124
    &END
    #H28
    &CONSTRAINT
     EQUAL_CHARGES
     ATOM_LIST 125..128
    &END
    &PRINT
     &COORD_FIT_POINTS
     &END
     &RESP_CHARGES_TO_FILE
     &END
     &V_RESP_CUBE
     &END
    &END
   &END
  &END PROPERTIES

&END FORCE_EVAL
